<?xml version = "1.0" encoding="UTF-8" standalone="yes"?>
<CPLEXSolution version="1.2">
 <header
   problemName=""
   objectiveValue="5.3602941176470589"
   solutionTypeValue="1"
   solutionTypeString="basic"
   solutionStatusValue="1"
   solutionStatusString="optimal"
   solutionMethodString="dual"
   primalFeasible="1"
   dualFeasible="1"
   simplexIterations="15"
   writeLevel="1"/>
 <quality
   epRHS="9.9999999999999995e-07"
   epOpt="9.9999999999999995e-07"
   maxPrimalInfeas="0"
   maxDualInfeas="0"
   maxPrimalResidual="7.4162898044960457e-14"
   maxDualResidual="1.1102230246251565e-16"
   maxX="1.4117647058823528"
   maxPi="0.29411764705882354"
   maxSlack="84.397058823529392"
   maxRedCost="0.35294117647058826"
   kappa="27.707911357512469"/>
 <linearConstraints>
  <constraint name="R0" index="0" status="BS" slack="-1.897058823529411" dual="-0"/>
  <constraint name="R3" index="1" status="LL" slack="0" dual="0.066176470588235295"/>
  <constraint name="R4" index="2" status="BS" slack="-2.6764705882352935" dual="-0"/>
  <constraint name="R5" index="3" status="LL" slack="0" dual="0.088235294117647051"/>
  <constraint name="R30" index="4" status="LL" slack="0" dual="0.12499999999999994"/>
  <constraint name="R31" index="5" status="LL" slack="0" dual="0.066176470588235281"/>
  <constraint name="R35" index="6" status="LL" slack="0" dual="0.058823529411764691"/>
  <constraint name="R39" index="7" status="BS" slack="-4.0294117647058831" dual="-0"/>
  <constraint name="C297" index="8" status="BS" slack="-7.2426470588235299" dual="-0"/>
  <constraint name="C298" index="9" status="BS" slack="-5.8823529411764701" dual="-0"/>
  <constraint name="C299" index="10" status="BS" slack="-4.5220588235294112" dual="-0"/>
  <constraint name="C300" index="11" status="BS" slack="-4.1617647058823515" dual="-0"/>
  <constraint name="C301" index="12" status="BS" slack="-3.1617647058823515" dual="-0"/>
  <constraint name="C302" index="13" status="BS" slack="-2.4411764705882351" dual="-0"/>
  <constraint name="C303" index="14" status="BS" slack="-2.8014705882352926" dual="-0"/>
  <constraint name="C304" index="15" status="BS" slack="-1.8014705882352926" dual="-0"/>
  <constraint name="C305" index="16" status="BS" slack="-0.72058823529411753" dual="-0"/>
  <constraint name="C306" index="17" status="BS" slack="-1.0808823529411757" dual="-0"/>
  <constraint name="C307" index="18" status="BS" slack="-1.4411764705882351" dual="-0"/>
  <constraint name="C308" index="19" status="BS" slack="-1.2426470588235294" dual="-0"/>
  <constraint name="C309" index="20" status="BS" slack="-51.632352941176464" dual="-0"/>
  <constraint name="C316" index="21" status="BS" slack="-32.544117647058812" dual="-0"/>
  <constraint name="C319" index="22" status="BS" slack="-67.102941176470594" dual="-0"/>
  <constraint name="C328" index="23" status="BS" slack="-27.323529411764653" dual="-0"/>
  <constraint name="C409" index="24" status="BS" slack="-1.2132352941176441" dual="-0"/>
  <constraint name="C413" index="25" status="BS" slack="-1.8161764705882462" dual="-0"/>
  <constraint name="C419" index="26" status="LL" slack="0" dual="0.29411764705882354"/>
  <constraint name="C421" index="27" status="BS" slack="-7.7941176470588225" dual="-0"/>
  <constraint name="C434" index="28" status="BS" slack="-6.5588235294117609" dual="-0"/>
  <constraint name="C439" index="29" status="BS" slack="-57.03676470588232" dual="-0"/>
  <constraint name="C448" index="30" status="BS" slack="-19.749999999999975" dual="-0"/>
  <constraint name="C461" index="31" status="BS" slack="-12.882352941176457" dual="-0"/>
  <constraint name="C534" index="32" status="BS" slack="-5.3382352941176414" dual="-0"/>
  <constraint name="C541" index="33" status="BS" slack="-3.6323529411764692" dual="-0"/>
  <constraint name="C542" index="34" status="BS" slack="-1.4705882352941186" dual="-0"/>
  <constraint name="C548" index="35" status="LL" slack="0" dual="0.088235294117647065"/>
  <constraint name="C559" index="36" status="BS" slack="-2.3088235294117654" dual="-0"/>
  <constraint name="C560" index="37" status="BS" slack="-1.963235294117645" dual="-0"/>
  <constraint name="C561" index="38" status="BS" slack="-63.161764705882348" dual="-0"/>
  <constraint name="C568" index="39" status="BS" slack="-49.838235294117631" dual="-0"/>
  <constraint name="C571" index="40" status="BS" slack="-84.397058823529392" dual="-0"/>
  <constraint name="C580" index="41" status="BS" slack="-53.264705882352906" dual="-0"/>
  <constraint name="C661" index="42" status="BS" slack="-4.095588235294108" dual="-0"/>
  <constraint name="C665" index="43" status="BS" slack="-13.345588235294112" dual="-0"/>
  <constraint name="C671" index="44" status="BS" slack="-0.72058823529411553" dual="-0"/>
  <constraint name="C673" index="45" status="BS" slack="-10.676470588235304" dual="-0"/>
  <constraint name="C686" index="46" status="BS" slack="-23.852941176470523" dual="-0"/>
  <constraint name="C691" index="47" status="BS" slack="-82.977941176470566" dual="-0"/>
  <constraint name="C700" index="48" status="BS" slack="-37.044117647058819" dual="-0"/>
  <constraint name="C713" index="49" status="BS" slack="-24.411764705882383" dual="-0"/>
  <constraint name="C786" index="50" status="BS" slack="-16.86764705882355" dual="-0"/>
  <constraint name="C793" index="51" status="BS" slack="-6.5147058823529331" dual="-0"/>
  <constraint name="C794" index="52" status="BS" slack="-4.352941176470587" dual="-0"/>
  <constraint name="C800" index="53" status="BS" slack="-0.72058823529411553" dual="-0"/>
  <constraint name="C811" index="54" status="BS" slack="-3.0294117647058822" dual="-0"/>
 </linearConstraints>
 <variables>
  <variable name="x0" index="0" status="LL" value="0" reducedCost="0.35294117647058826"/>
  <variable name="x1" index="1" status="LL" value="0" reducedCost="0.32352941176470584"/>
  <variable name="x2" index="2" status="LL" value="0" reducedCost="0.26470588235294118"/>
  <variable name="x6" index="3" status="BS" value="0.72058823529411775" reducedCost="0"/>
  <variable name="x7" index="4" status="LL" value="0" reducedCost="0.088235294117647148"/>
  <variable name="x11" index="5" status="BS" value="1.4117647058823528" reducedCost="0"/>
  <variable name="x15" index="6" status="LL" value="0" reducedCost="0.088235294117647148"/>
  <variable name="x36" index="7" status="LL" value="0" reducedCost="0.058823529411764677"/>
  <variable name="x40" index="8" status="BS" value="0.30882352941176439" reducedCost="0"/>
  <variable name="x46" index="9" status="LL" value="0" reducedCost="0.14705882352941185"/>
  <variable name="x52" index="10" status="BS" value="1.1911764705882353" reducedCost="0"/>
  <variable name="x111" index="11" status="BS" value="0.27941176470588219" reducedCost="0"/>
  <variable name="x117" index="12" status="BS" value="0.9411764705882355" reducedCost="0"/>
  <variable name="x121" index="13" status="LL" value="0" reducedCost="0.088235294117647162"/>
  <variable name="x125" index="14" status="LL" value="0" reducedCost="0"/>
  <variable name="x246" index="15" status="LL" value="0" reducedCost="0.11764705882352951"/>
  <variable name="x250" index="16" status="LL" value="0" reducedCost="0.26470588235294124"/>
  <variable name="x251" index="17" status="BS" value="0.50735294117647067" reducedCost="0"/>
 </variables>
 <objectiveValues>
  <objective index="0" name="" value="5.3602941176470589"/>
 </objectiveValues>
</CPLEXSolution>
